0 3523
1 591
2 465
3 465
4 462
5 459
6 459
7 458
8 458
9 456
10 456
11 456
12 456
13 454
14 454
15 452
16 452
17 452
18 451
19 451
20 451
21 449
22 449
23 449
24 449
25 449
26 449
27 449
28 449
29 449
30 449
31 449
32 449
33 449
34 449
35 449
36 449
37 449
38 449
39 449
40 449
41 448
42 448
43 448
44 448
45 448
46 448
47 448
48 448
49 448
50 448
51 448
52 448
53 448
54 448
55 448
56 448
57 448
58 448
59 448
60 448
61 448
62 448
63 448
64 448
65 448
66 448
67 448
68 448
69 448
70 448
71 448
72 448
73 448
74 448
75 448
76 448
77 448
78 448
79 448
80 448
81 448
82 448
83 448
84 448
85 448
86 448
87 448
88 448
89 448
90 448
91 448
92 448
93 448
94 448
95 448
96 448
97 448
98 448
99 448
100 448
101 448
102 448
103 448
104 448
105 448
106 448
107 448
108 448
109 448
110 448
111 448
112 448
113 448
114 448
115 448
116 448
117 448
118 448
119 448
120 448
121 448
122 448
123 448
124 448
125 448
126 448
127 448
128 448
129 448
130 448
131 448
132 448
133 448
134 448
135 448
136 448
137 448
138 448
139 448
140 448
141 448
142 448
143 448
144 448
145 448
146 448
147 448
148 448
149 448
150 448
151 448
152 448
153 448
154 448
155 448
156 448
157 448
158 448
159 448
160 448
161 448
162 448
163 448
164 448
165 448
166 448
167 448
168 448
169 448
170 448
171 448
172 448
173 448
174 448
175 448
176 448
177 448
178 448
179 448
180 448
181 448
182 448
183 448
184 448
185 448
186 448
187 448
188 448
189 448
190 448
191 448
192 448
193 448
194 448
195 448
196 448
197 448
198 448
199 448
200 448
201 448
202 448
203 448
204 448
205 448
206 448
207 448
208 448
209 448
210 448
211 448
212 448
213 448
214 448
215 448
216 448
217 448
218 448
219 448
220 448
221 448
222 448
223 448
224 448
225 448
226 448
227 448
228 448
229 448
230 448
231 448
232 448
233 448
234 448
235 448
236 448
237 448
238 448
239 448
240 448
241 448
242 448
243 448
244 448
245 448
246 448
247 448
248 448
249 448
250 448
251 448
252 448
253 448
254 448
255 448
256 448
257 448
258 448
259 448
260 448
261 448
262 448
263 448
264 448
265 448
266 448
267 448
268 448
269 448
270 448
271 448
272 448
273 448
274 448
275 448
276 448
277 448
278 448
279 448
280 448
281 448
282 448
283 448
284 448
285 448
286 448
287 448
288 448
289 448
290 448
291 448
292 448
293 448
294 448
295 448
296 448
297 448
298 448
299 448
300 448
301 448
302 448
303 448
304 448
305 448
306 448
307 448
308 448
309 448
310 448
311 448
312 448
313 448
314 448
315 448
316 448
317 448
318 448
319 448
320 448
321 448
322 448
323 448
324 448
325 448
326 448
327 448
328 448
329 448
330 448
331 448
332 448
333 448
334 448
335 448
336 448
337 448
338 448
339 448
340 448
341 448
342 448
343 448
344 448
345 448
346 448
347 448
348 448
349 448
350 448
351 448
352 448
353 448
354 448
355 448
356 448
357 448
358 448
359 448
360 448
361 448
362 448
363 448
364 448
365 448
366 448
367 448
368 448
369 448
370 448
371 448
372 448
373 448
374 448
375 448
376 448
377 448
378 448
379 448
380 448
381 448
382 448
383 448
384 448
385 448
386 448
387 448
388 448
389 448
390 448
391 448
392 448
393 448
394 448
395 448
396 448
397 448
398 448
399 448
400 448
401 448
402 448
403 448
404 448
405 448
406 448
407 448
408 448
409 448
410 448
411 448
412 448
413 448
414 448
415 448
416 448
417 448
418 448
419 448
420 448
421 448
422 448
423 448
424 448
425 448
426 448
427 448
428 448
429 448
430 448
431 448
432 448
433 448
434 448
435 448
436 448
437 448
438 448
439 448
440 448
441 448
442 448
443 448
444 448
445 448
446 448
447 448
448 448
449 448
450 448
451 448
452 448
453 448
454 448
455 448
456 448
457 448
458 448
459 448
460 448
461 448
462 448
463 448
464 448
465 448
466 448
467 448
468 448
469 448
470 448
471 448
472 448
473 448
474 448
475 448
476 448
477 448
478 448
479 448
480 448
481 448
482 448
483 448
484 448
485 448
486 448
487 448
488 448
489 448
490 448
491 448
492 448
493 448
494 448
495 448
496 448
497 448
498 448
499 448
500 448
501 448
502 448
503 448
504 448
505 448
506 448
507 448
508 448
509 448
510 448
511 448
512 448
513 448
514 448
515 448
516 448
517 448
518 448
519 448
520 448
521 448
522 448
523 448
524 448
525 448
526 448
527 448
528 448
529 448
530 448
531 448
532 448
533 448
534 448
535 448
536 448
537 448
538 448
539 448
540 448
541 448
542 448
543 448
544 448
545 448
546 448
547 448
548 448
549 448
550 448
551 448
552 448
553 448
554 448
555 448
556 448
557 448
558 448
559 448
560 448
561 448
562 448
563 448
564 448
565 448
566 448
567 448
568 448
569 448
570 448
571 448
572 448
573 448
574 448
575 448
576 448
577 448
578 448
579 448
580 448
581 448
582 448
583 448
584 448
585 448
586 448
587 448
588 448
589 448
590 448
591 448
592 448
593 448
594 448
595 448
596 448
597 448
598 448
599 448
600 448
601 448
602 448
603 448
604 448
605 448
606 448
607 448
608 448
609 448
610 448
611 448
612 448
613 448
614 448
615 448
616 448
617 448
618 448
619 448
620 448
621 448
622 448
623 448
624 448
625 448
626 448
627 448
628 448
629 448
630 448
631 448
632 448
633 448
634 448
635 448
636 448
637 448
638 448
639 448
640 448
641 448
642 448
643 448
644 448
645 448
646 448
647 448
648 448
649 448
650 448
651 448
652 448
653 448
654 448
655 448
656 448
657 448
658 448
659 448
660 448
661 448
662 448
663 448
664 448
665 448
666 448
667 448
668 448
669 448
670 448
671 448
672 448
673 448
674 448
675 448
676 448
677 448
678 448
679 448
680 448
681 448
682 448
683 448
684 448
685 448
686 448
687 448
688 448
689 448
690 448
691 448
692 448
693 448
694 448
695 448
696 448
697 448
698 448
699 448
700 448
701 448
702 448
703 448
704 448
705 448
706 448
707 448
708 448
709 448
710 448
711 448
712 448
713 448
714 448
715 448
716 448
717 448
718 448
719 448
720 448
721 448
722 448
723 448
724 448
725 448
726 448
727 448
728 448
729 448
730 448
731 448
732 448
733 448
734 448
735 448
736 448
737 448
738 448
739 448
740 448
741 448
742 448
743 448
744 448
745 448
746 448
747 448
748 448
749 448
750 448
751 448
752 448
753 448
754 448
755 448
756 448
757 448
758 448
759 448
760 448
761 448
762 448
763 448
764 448
765 448
766 448
767 448
768 448
769 448
770 448
771 448
772 448
773 448
774 448
775 448
776 448
777 448
778 448
779 448
780 448
781 448
782 448
783 448
784 448
785 448
786 448
787 448
788 448
789 448
790 448
791 448
792 448
793 448
794 448
795 448
796 448
797 448
798 448
799 448
800 448
801 448
802 448
803 448
804 448
805 448
806 448
807 448
808 448
809 448
810 448
811 448
812 448
813 448
814 448
815 448
816 448
817 448
818 448
819 448
820 448
821 448
822 448
823 448
824 448
825 448
826 448
827 448
828 448
829 448
830 448
831 448
832 448
833 448
834 448
835 448
836 448
837 448
838 448
839 448
840 448
841 448
842 448
843 448
844 448
845 448
846 448
847 448
848 448
849 448
850 448
851 448
852 448
853 448
854 448
855 448
856 448
857 448
858 448
859 448
860 448
861 448
862 448
863 448
864 448
865 448
866 448
867 448
868 448
869 448
870 448
871 448
872 448
873 448
874 448
875 448
876 448
877 448
878 448
879 448
880 448
881 448
882 448
883 448
884 448
885 448
886 448
887 448
888 448
889 448
890 448
891 448
892 448
893 448
894 448
895 448
896 448
897 448
898 448
899 448
900 448
901 448
902 448
903 448
904 448
905 448
906 448
907 448
908 448
909 448
910 448
911 448
912 448
913 448
914 448
915 448
916 448
917 448
918 448
919 448
920 448
921 448
922 448
923 448
924 448
925 448
926 448
927 448
928 448
929 448
930 448
931 448
932 448
933 448
934 448
935 448
936 448
937 448
938 448
939 448
940 448
941 448
942 448
943 448
944 448
945 448
946 448
947 448
948 448
949 448
950 448
951 448
952 448
953 448
954 448
955 448
956 448
957 448
958 448
959 448
960 448
961 448
962 448
963 448
964 448
965 448
966 448
967 448
968 448
969 448
970 448
971 448
972 448
973 448
974 448
975 448
976 448
977 448
978 448
979 448
980 448
981 448
982 448
983 448
984 448
985 448
986 448
987 448
988 448
989 448
990 448
991 448
992 448
993 448
994 448
995 448
996 448
997 448
998 448
999 448
